0 57 58
1 66 67
2 68 69
3 56 73
4 71 74
5 63 72
6 68 69
7 47 70
8 65 68
9 58 66
10 54 65
11 64 65
12 54 61
13 53 60
14 50 61
15 53 61
16 44 59
17 39 57
18 57 57
19 37 57
20 44 54
21 44 50
22 43 47
23 42 46
24 43 48
25 44 45
26 35 43
27 41 44
28 34 41
29 31 38
30 31 34
31 31 33
32 34 36
33 25 33
34 30 33
35 30 31
36 29 29
37 28 29
38 23 29
39 28 34
40 17 28
41 14 28
42 26 28
43 23 23
44 14 27
45 24 27
46 23 23
47 17 21
48 19 19
49 20 21
50 10 21
51 17 18
52 14 18
53 14 15
54 8 13
55 10 16
56 11 13
57 10 11
58 4 6
59 6 6
60 2 4
61 2 2
62 2 2
63 1 1

